20	5	2	0
0	1	19	5	11	17	10	18	1	12	2	13	20	16	3	6	21	19	15	4	8	9	[0 0 0 0 0]	[0 0 0 0 0]	[0 0 0 0 0]	[0 0 0 0 0]	[0 0 0 0 0]	[0 0 0 0 0]	[0 0 0 0 0]	[0 0 0 0 0]	[0 0 0 0 0]	[0 0 0 0 0]	[0 0 0 0 0]	[0 0 0 0 0]	[0 0 0 0 0]	[0]	[0 0 0 0 0]	[0 0 0 0 0]	[0 0 0 0 0]	[0 0 0 0 0]	[0 0 0 0 0]
1	5	3	21	13	7	[1 5 2 8 1]	[0 0 0 0 2 13 -3 11 -2 5 6 3 5 5 0 3 20 -5 -2 14 2 2 3 0 3]	[1 0 3 2 3 2 3 4 12 7 1 0 3 0 0 10 3 18 19 9 3 1 0 1 3]
2	5	3	10	7	21	[13 25 26 26 -8 11 -1 13 4 -3 9 5 6 12 6 9 7 0 -2 14 0 3 0 0 2]	[12 15 7 7 10 -2 15 5 -3 4 -2 0 -3 12 3 -4 6 6 6 4 1 3 0 0 0]	[9 5 4 5 1]
3	5	4	19	8	21	16	[3 18 12 9 25 17 3 -5 8 16 9 0 23 5 9 0 12 9 10 3 15 12 -4 21 9]	[10 30 19 -1 3 10 7 -6 3 10 12 24 19 12 27 -2 4 4 11 -3 7 6 10 14 18]	[10 7 10 4 7]	[9 26 11 21 7 14 6 12 -4 6 23 -8 14 -5 0 9 8 -1 12 12 5 21 21 9 13]
4	5	2	14	21	[2 2 6 0 6 0 14 12 8 11 24 5 29 18 2 4 3 8 1 1 4 0 3 0 6]	[2 7 10 3 2]
5	5	3	12	11	21	[5 3 -1 0 2 10 14 19 9 13 9 -1 11 10 12 7 26 7 4 -2 1 0 1 0 0]	[4 6 0 -1 0 16 23 16 -1 4 12 0 0 5 2 2 -7 -5 14 22 0 3 3 3 0]	[2 8 6 10 1]
6	5	2	21	8	[9 6 9 2 8]	[9 8 -1 8 0 7 7 3 10 6 -5 -6 3 13 4 5 0 -1 -1 6 18 15 -2 -6 17]
7	5	3	17	21	19	[8 13 24 16 6 11 2 6 7 0 -4 3 20 22 -4 5 8 1 19 0 -6 14 16 11 3]	[10 4 10 7 8]	[4 23 10 9 -3 6 11 3 1 4 23 2 -3 13 -8 15 18 -5 -1 -6 24 4 -2 2 -2]
8	5	2	18	21	[10 0 3 1 7 3 9 -3 18 -3 7 -2 11 7 10 1 -2 -2 0 0 -2 7 9 12 -3]	[4 7 10 3 5]
9	5	5	13	17	11	21	10	[12 3 8 -5 18 24 12 10 7 -2 12 21 19 -3 7 -4 9 20 -1 21 11 11 6 9 -1]	[-2 2 9 19 1 27 25 0 24 6 19 -1 14 2 21 12 8 8 19 21 1 4 0 -2 6]	[-169 -161 -160 -179 -239 -204 -116 -145 -68 -97 -271 -214 -237 -179 -272 -235 -261 -81 -207 -78 -102 -269 -231 -175 -120]	[7 9 10 7 4]	[-135 -249 -108 -109 -75 -193 -206 -181 -243 -260 -260 -234 -107 -218 -145 -218 -174 -162 -216 -244 -263 -148 -123 -212 -61]
10	5	4	21	14	19	12	[7 6 2 9 9]	[0 13 4 0 -4 -3 -1 -4 -2 17 5 -1 1 3 1 10 16 15 -4 -1 10 -4 6 8 5]	[15 21 11 10 3 4 12 8 18 13 2 3 0 -1 1 15 -3 18 15 13 18 17 4 15 8]	[0 8 12 10 12 11 -5 -2 10 -2 4 4 1 1 0 9 -7 -2 24 8 27 -3 15 20 22]
11	5	2	21	15	[3 10 6 4 5]	[9 -1 2 8 9 11 0 0 -4 30 0 15 -5 -4 0 0 -2 9 4 3 -2 10 3 11 11]
12	5	4	8	16	2	21	[3 -1 4 -1 8 21 17 -5 20 13 0 1 -2 9 0 0 2 0 0 0 8 -1 14 15 8]	[2 0 1 2 7 -6 -1 0 16 6 0 6 5 6 -1 1 2 0 0 3 0 11 -1 3 5]	[-148 -206 -225 -211 -203 -243 -223 -190 -169 -86 -141 -270 -140 -250 -158 -70 -275 -99 -214 -193 -142 -258 -196 -117 -107]	[3 8 3 1 5]
13	5	6	16	5	18	20	21	2	[-142 -241 -185 -147 -177 -221 -87 -134 -108 -217 -228 -239 -167 -155 -173 -190 -243 -97 -126 -188 -196 -229 -107 -238 -128]	[-111 -196 -73 -117 -264 -121 -238 -203 -104 -167 -202 -68 -235 -237 -60 -135 -73 -129 -197 -110 -107 -114 -113 -256 -217]	[4 8 1 -2 7 0 4 -1 5 0 5 8 5 3 15 6 4 14 0 -8 4 -1 12 2 5]	[-1 0 0 4 0 6 0 1 4 6 2 14 4 -1 -2 -4 18 3 -2 25 11 0 7 10 12]	[3 3 5 9 5]	[-206 -169 -119 -176 -222 -253 -111 -232 -147 -201 -247 -132 -209 -102 -114 -112 -269 -212 -98 -157 -117 -144 -239 -162 -227]
14	5	3	13	21	17	[2 2 1 0 0 11 27 27 19 20 2 3 0 0 7 5 2 -1 6 5 11 -6 -7 3 -3]	[1 9 3 3 9]	[0 0 0 3 0 14 25 13 -1 0 4 6 0 8 -1 8 -2 0 5 5 23 13 0 -5 -6]
15	5	3	7	9	21	[15 1 15 10 17 2 0 0 2 0 8 18 5 13 20 0 0 10 10 6 1 1 1 2 0]	[-5 20 5 11 0 0 0 0 1 0 20 8 -6 8 -5 -1 6 12 11 10 0 2 2 1 1]	[7 1 7 4 1]
16	5	2	9	21	[2 11 0 8 8 0 3 6 3 4 21 30 5 23 -5 8 13 -6 9 3 18 -4 8 -1 6]	[6 4 10 7 6]
17	5	2	11	21	[-145 -140 -221 -91 -174 -186 -230 -148 -156 -243 -258 -181 -252 -259 -88 -161 -125 -147 -91 -275 -186 -165 -242 -256 -285]	[8 2 2 1 8]
18	5	1	21	[9 10 3 4 2]
19	5	2	1	21	[-274 -279 -279 -275 -241 -281 -86 -249 -75 -195 -205 -79 -211 -231 -267 -184 -229 -175 -161 -102 -218 -192 -192 -152 -106]	[8 1 6 3 2]
20	5	3	10	21	13	[-76 -144 -87 -218 -257 -69 -199 -127 -197 -218 -250 -148 -251 -230 -270 -273 -115 -240 -258 -179 -182 -182 -248 -220 -244]	[2 1 2 7 2]	[-272 -85 -108 -157 -288 -144 -272 -133 -128 -158 -104 -181 -226 -250 -207 -235 -182 -109 -160 -168 -226 -196 -256 -243 -99]
21	1	0
0	1	0	0	0	0	0	0	0	0
1	1	1	3	2	5	1	5	2	3
	2	5	3	2	5	1	5	2	3
	3	2	3	2	5	1	5	2	3
	4	8	3	2	5	1	5	2	3
	5	1	3	2	5	1	5	2	3
2	1	9	2	2	3	2	3	2	3
	2	5	2	2	3	2	3	2	3
	3	4	2	2	3	2	3	2	3
	4	5	2	2	3	2	3	2	3
	5	1	2	2	3	2	3	2	3
3	1	10	2	4	2	3	3	2	2
	2	7	2	4	2	3	3	2	2
	3	10	2	4	2	3	3	2	2
	4	4	2	4	2	3	3	2	2
	5	7	2	4	2	3	3	2	2
4	1	2	1	5	4	1	4	4	4
	2	7	1	5	4	1	4	4	4
	3	10	1	5	4	1	4	4	4
	4	3	1	5	4	1	4	4	4
	5	2	1	5	4	1	4	4	4
5	1	2	4	4	4	3	2	4	2
	2	8	4	4	4	3	2	4	2
	3	6	4	4	4	3	2	4	2
	4	10	4	4	4	3	2	4	2
	5	1	4	4	4	3	2	4	2
6	1	9	2	3	1	5	1	2	4
	2	6	2	3	1	5	1	2	4
	3	9	2	3	1	5	1	2	4
	4	2	2	3	1	5	1	2	4
	5	8	2	3	1	5	1	2	4
7	1	10	2	3	2	5	1	1	3
	2	4	2	3	2	5	1	1	3
	3	10	2	3	2	5	1	1	3
	4	7	2	3	2	5	1	1	3
	5	8	2	3	2	5	1	1	3
8	1	4	3	1	4	1	5	4	2
	2	7	3	1	4	1	5	4	2
	3	10	3	1	4	1	5	4	2
	4	3	3	1	4	1	5	4	2
	5	5	3	1	4	1	5	4	2
9	1	7	3	5	1	5	2	3	4
	2	9	3	5	1	5	2	3	4
	3	10	3	5	1	5	2	3	4
	4	7	3	5	1	5	2	3	4
	5	4	3	5	1	5	2	3	4
10	1	7	3	1	4	5	4	2	2
	2	6	3	1	4	5	4	2	2
	3	2	3	1	4	5	4	2	2
	4	9	3	1	4	5	4	2	2
	5	9	3	1	4	5	4	2	2
11	1	3	3	3	3	2	1	5	2
	2	10	3	3	3	2	1	5	2
	3	6	3	3	3	2	1	5	2
	4	4	3	3	3	2	1	5	2
	5	5	3	3	3	2	1	5	2
12	1	3	5	5	1	1	1	4	1
	2	8	5	5	1	1	1	4	1
	3	3	5	5	1	1	1	4	1
	4	1	5	5	1	1	1	4	1
	5	5	5	5	1	1	1	4	1
13	1	3	2	1	2	2	5	1	2
	2	3	2	1	2	2	5	1	2
	3	5	2	1	2	2	5	1	2
	4	9	2	1	2	2	5	1	2
	5	5	2	1	2	2	5	1	2
14	1	1	2	3	4	2	5	4	1
	2	9	2	3	4	2	5	4	1
	3	3	2	3	4	2	5	4	1
	4	3	2	3	4	2	5	4	1
	5	9	2	3	4	2	5	4	1
15	1	7	4	3	1	2	3	5	1
	2	1	4	3	1	2	3	5	1
	3	7	4	3	1	2	3	5	1
	4	4	4	3	1	2	3	5	1
	5	1	4	3	1	2	3	5	1
16	1	6	2	3	3	1	3	5	3
	2	4	2	3	3	1	3	5	3
	3	10	2	3	3	1	3	5	3
	4	7	2	3	3	1	3	5	3
	5	6	2	3	3	1	3	5	3
17	1	8	1	5	3	5	5	4	4
	2	2	1	5	3	5	5	4	4
	3	2	1	5	3	5	5	4	4
	4	1	1	5	3	5	5	4	4
	5	8	1	5	3	5	5	4	4
18	1	9	5	5	4	2	3	4	1
	2	10	5	5	4	2	3	4	1
	3	3	5	5	4	2	3	4	1
	4	4	5	5	4	2	3	4	1
	5	2	5	5	4	2	3	4	1
19	1	8	1	3	5	5	2	5	2
	2	1	1	3	5	5	2	5	2
	3	6	1	3	5	5	2	5	2
	4	3	1	3	5	5	2	5	2
	5	2	1	3	5	5	2	5	2
20	1	2	2	2	3	5	1	3	1
	2	1	2	2	3	5	1	3	1
	3	2	2	2	3	5	1	3	1
	4	7	2	2	3	5	1	3	1
	5	2	2	2	3	5	1	3	1
21	1	0	0	0	0	0	0	0	0
29	34	32	32	32	66	113
